Route #1: 14 17 47 10 2 41
Route #2: 28 29 21 30 13 46 33 16
Route #3: 45 27 15 42 11 4 24 9 34
Route #4: 40 7 8 39 26 20 3 37
Route #5: 6 22 25 19 38 36 32
Route #6: 44 35 18
Route #7: 12 5 1 31 43 23
Cost 1073
Time 0.066953
